GLPSOL: GLPK LP/MIP Solver, v4.65
Parameter(s) specified in the command line:
 --model solver_drone.mod --data solver_drone_data_20.dat --output solver_drone_solution_20_3.log
 --log solver_drone_cmd_output_20_3.log --tmlim 25
Reading model section from solver_drone.mod...
41 lines were read
Reading data section from solver_drone_data_20.dat...
59 lines were read
Generating f...
Generating package_deliverd_once...
Generating package_well_delivered...
Generating time_spent_flying...
Generating autonomy_not_exceeded...
Generating check_time_max...
Model has been successfully generated
GLPK Integer Optimizer, v4.65
1762 rows, 1705 columns, 5194 non-zeros
1705 integer variables, 1701 of which are binary
Preprocessing...
60 rows, 1705 columns, 3492 non-zeros
1705 integer variables, 1701 of which are binary
Scaling...
 A: min|aij| =  1.000e+00  max|aij| =  2.856e+03  ratio =  2.856e+03
GM: min|aij| =  4.803e-01  max|aij| =  2.082e+00  ratio =  4.335e+00
EQ: min|aij| =  2.307e-01  max|aij| =  1.000e+00  ratio =  4.335e+00
2N: min|aij| =  1.250e-01  max|aij| =  1.180e+00  ratio =  9.438e+00
Constructing initial basis...
Size of triangular part is 60
Solving LP relaxation...
GLPK Simplex Optimizer, v4.65
60 rows, 1705 columns, 3492 non-zeros
      0: obj =   0.000000000e+00 inf =   1.152e+03 (1)
     78: obj =   1.229066667e+04 inf =   1.669e-14 (0)
*    80: obj =   1.229066667e+04 inf =   1.776e-15 (0)
OPTIMAL LP SOLUTION FOUND
Integer optimization begins...
Long-step dual simplex will be used
+    80: mip =     not found yet >=              -inf        (1; 0)
+   174: >>>>>   1.377600000e+04 >=   1.229100000e+04  10.8% (39; 0)
+   610: >>>>>   1.280800000e+04 >=   1.229100000e+04   4.0% (76; 1)
+   937: >>>>>   1.256000000e+04 >=   1.229100000e+04   2.1% (84; 23)
+  1067: >>>>>   1.232800000e+04 >=   1.229100000e+04   0.3% (91; 34)
+  7061: >>>>>   1.232000000e+04 >=   1.229100000e+04   0.2% (562; 130)
+  9054: >>>>>   1.231200000e+04 >=   1.229100000e+04   0.2% (735; 185)
+ 12644: >>>>>   1.229600000e+04 >=   1.229100000e+04 < 0.1% (1016; 315)
+ 64437: mip =   1.229600000e+04 >=   1.229100000e+04 < 0.1% (3797; 2309)
+110979: mip =   1.229600000e+04 >=   1.229100000e+04 < 0.1% (6306; 4116)
+155003: mip =   1.229600000e+04 >=   1.229100000e+04 < 0.1% (8857; 5535)
+194486: mip =   1.229600000e+04 >=   1.229100000e+04 < 0.1% (11113; 6939)
+222280: mip =   1.229600000e+04 >=   1.229100000e+04 < 0.1% (12314; 8158)
TIME LIMIT EXCEEDED; SEARCH TERMINATED
Time used:   25.0 secs
Memory used: 71.2 Mb (74616722 bytes)
The package 1 is delivered by the drone 2 to the house 2
The package 2 is delivered by the drone 1 to the house 2
The package 3 is delivered by the drone 2 to the house 4
The package 4 is delivered by the drone 3 to the house 4
The package 5 is delivered by the drone 1 to the house 4
The package 6 is delivered by the drone 1 to the house 5
The package 7 is delivered by the drone 1 to the house 6
The package 8 is delivered by the drone 3 to the house 6
The package 9 is delivered by the drone 2 to the house 6
The package 10 is delivered by the drone 3 to the house 8
The package 11 is delivered by the drone 1 to the house 8
The package 12 is delivered by the drone 1 to the house 8
The package 13 is delivered by the drone 3 to the house 9
The package 14 is delivered by the drone 1 to the house 9
The package 15 is delivered by the drone 3 to the house 10
The package 16 is delivered by the drone 3 to the house 10
The package 17 is delivered by the drone 3 to the house 11
The package 18 is delivered by the drone 3 to the house 12
The package 19 is delivered by the drone 3 to the house 15
The package 20 is delivered by the drone 1 to the house 16
The package 21 is delivered by the drone 3 to the house 16
The package 22 is delivered by the drone 2 to the house 18
The package 23 is delivered by the drone 2 to the house 18
The package 24 is delivered by the drone 2 to the house 20
The package 25 is delivered by the drone 3 to the house 20
The package 26 is delivered by the drone 2 to the house 21
The package 27 is delivered by the drone 1 to the house 21
Model has been successfully processed
Writing MIP solution to 'solver_drone_solution_20_3.log'...
